1551
45 48 28 66 59 69 56 44 99 21 13 76 89 47 3 37 35 8 87 61 85 80 4 6 54 90 19 14 5 65 84 7 94 79 96 88 51 10 71 17 24 38 42 32 95 26 34 70 40 98 33 74 83 64 49 2 1 93 31 12 55 86 62 91 67 18 53 63 77 36 27 60 15 22 39 16 82 75 20 41 52 29 23 57 58 97 30 50 72 92 43 78 68 9 46 25 11 73 81 
